
ACE v2.1 

  instance
    name:PyCSP

  Loading variables...

  Loading constraints...

  domains
    types:1  values:441  sizes:[3:147]
  variables
    count:147  arrays:1  degrees:[123:4,124:48,125:95]
  constraints
    count:4443  specific:33  groups:2  arities:[4:4410,14:20,21:7,42:6]
    distribution:[Cardinality:7,ConstraintIntension:4410,LexicographicLE:26]
    intStructures:(1,shared:4409)
    wck:2.09  cpu:2.093  mem:62M625

  Building solver... 

  solver
    guaranteedAC:true
    wck:2.15  cpu:2.125  mem:69M443

  preprocessing
    revisions:(17640,useless=17640)  values:441  unsat:false
    wck:0.047  cpu:2.171  mem:69M443

    run0  dpts:0..15  effs:212  fails:2  wrgs:18  wck:0.00

  global
    effs:212  revisions:(87296,useless=87267)
    stop:FULL_EXPLORATION  wrgs:18
    wck:2.25  cpu:2.218  mem:69M443

s UNSATISFIABLE

d WRONG DECISIONS 18
d FOUND SOLUTIONS 0
d COMPLETE EXPLORATION

c real time : 2.234
